(set-info :Origin "This instance was generated by: BanditFuzz-- an RL fuzzer for SMT solvers" )
(set-info :Author "Joe Scott, Fed Mora, Vijay Ganesh" )
(set-info :Contact "Joe Scott, joseph.scott@uwaterloo.ca")
(set-logic QF_BV)
(declare-const bool_0 Bool)
(declare-const bool_1 Bool)
(declare-const bool_2 Bool)
(declare-const bool_3 Bool)
(declare-const bool_4 Bool)
(declare-const bv_0 (_ BitVec 32))
(declare-const bv_1 (_ BitVec 32))
(declare-const bv_2 (_ BitVec 32))
(declare-const bv_3 (_ BitVec 32))
(declare-const bv_4 (_ BitVec 32))
(assert (=> (bvult (bvadd #x6f46f490  bv_3) (bvxor #xe96dbfcc  bv_4)) (bvugt (bvshl #x632d9da0  #x6de290a8 ) (bvurem #xc5eea2d8  bv_1))))
(assert (bvslt (bvlshr (bvor #x5bd387fd  #x903d8f6a ) (bvsrem bv_3 bv_1)) (bvsrem (bvsmod bv_3 bv_4) (bvnor #xcf22324a  #x9c9aa10c ))))
(assert (or (bvule (bvand bv_4 #xa1ec87a2 ) (bvsub bv_3 bv_2)) (bvsle (bvsmod bv_1 #x9c3a3182 ) (bvsub #xa4f55d2c  bv_0))))
(assert (bvsgt (bvadd (bvadd #xd0c0b07c  bv_4) (bvadd bv_1 bv_3)) (bvor (bvnor bv_2 bv_3) (bvurem #x9d930aab  bv_2))))
(assert (=> (bvsle (bvshl bv_4 #x34293be8 ) (bvxor bv_3 bv_4)) (bvugt (bvxnor bv_3 #x01a46272 ) (bvsmod bv_3 bv_3))))
(check-sat)
(exit)
